WARNING: for repeatability, setting FPU to use double precision
============================[ Problem Statistics ]=============================
|                                                                             |
|  Number of variables:        224553                                         |
|  Number of clauses:          511127                                         |
|  Parse time:                   0.27 s                                       |
|                                                                             |
============================[ Search Statistics ]==============================
| Conflicts |          ORIGINAL         |          LEARNT          | Progress |
|           |    Vars  Clauses Literals |    Limit  Clauses Lit/Cl |          |
===============================================================================
|       100 |  122530   488170  1098070 |   178995      100     12 | 45.434 % |
|       250 |  122530   488170  1098070 |   196895      250     12 | 45.434 % |
|       475 |  122530   488170  1098070 |   216584      475     13 | 45.434 % |
|       812 |  122530   488170  1098070 |   238243      812     22 | 45.434 % |
|      1318 |  122530   488170  1098070 |   262067     1318     27 | 45.434 % |
|      2077 |  122530   488170  1098070 |   288274     2077     26 | 45.434 % |
===============================================================================
restarts              : 15
conflicts             : 3200           (1090 /sec)
decisions             : 46087          (0.00 % random) (15696 /sec)
propagations          : 10745850       (3659803 /sec)
conflict literals     : 149258         (7.92 % deleted)
Memory used           : 61.00 MB
CPU time              : 2.93618 s

SATISFIABLE
